p edge 30 41 10
v 4 5 6 8 19
v 2 21 29
v 4 4 12 13 22
v 3 7 16 20
v 3 9 14 25
v 2 17 28
v 3 15 18 23
v 4 2 3 24 30
v 2 1 27
v 3 10 11 26
e 1 6
e 1 15
e 1 22
e 2 15
e 2 29
e 3 6
e 3 14
e 3 15
e 3 17
e 4 10
e 4 20
e 4 23
e 4 29
e 6 8
e 6 27
e 7 12
e 7 17
e 7 23
e 8 12
e 8 20
e 8 25
e 8 27
e 9 16
e 11 16
e 11 22
e 12 28
e 13 22
e 14 22
e 15 18
e 15 26
e 15 27
e 16 19
e 16 22
e 18 22
e 18 23
e 19 28
e 21 23
e 22 25
e 22 27
e 22 28
e 23 25
